18
6 9
6 1
6 7
6 10
6 16
6 14
6 11
6 4
6 15
6 8
6 0
6 12
9 14
9 16
9 8
9 11
9 3
9 12
9 5
9 4
9 17
9 10
9 7
10 17
10 0
10 4
10 1
10 15
10 8
10 16
10 11
10 12
10 2
17 13
17 0
17 12
17 2
17 3
17 5
17 7
17 16
17 8
17 15
7 12
7 0
7 8
7 15
7 2
7 5
7 14
7 13
7 1
12 3
12 8
12 4
12 16
12 5
12 11
12 15
0 1
0 14
0 11
0 5
0 8
0 15
0 3
0 13
13 16
13 8
13 5
13 4
13 2
13 11
13 3
13 1
13 14
1 15
1 16
1 5
1 3
1 4
1 2
1 8
2 5
2 8
2 3
2 14
2 4
2 16
2 15
5 11
5 14
5 3
5 15
4 16
4 15
4 11
4 8
4 14
14 11
14 16
14 3
14 8
11 15
11 16
11 3
16 3
3 15
